Test: hole016_shuffled.cnf
Options: -no-inverting-opt -activity-look-freq=1
WARNING: for repeatability, setting FPU to use double precision
============================[ Problem Statistics ]=============================
|                                                                             |
|  Number of symmetries:           31                                         |
|  Number of invertingSyms:         0                                         |
|  Number of variables:           272                                         |
|  Number of clauses:            2193                                         |
|  Parse time:                   0.00 s                                       |
|                                                                             |
============================[ Search Statistics ]==============================
| Conflicts |          ORIGINAL         |          LEARNT          | Progress |
|           |    Vars  Clauses Literals |    Limit  Clauses Lit/Cl |          |
===============================================================================
|       100 |     272     2193     4624 |      804      109    115 |  0.001 % |
|       250 |     272     2193     4624 |      884      304     80 |  0.001 % |
|       475 |     272     2193     4624 |      972      673     69 |  0.001 % |
|       812 |     272     2193     4624 |     1070      677     55 |  0.001 % |
|      1318 |     272     2193     4624 |     1177     1133     71 |  0.001 % |
|      2077 |     272     2193     4624 |     1295      740     84 |  0.001 % |
|      3216 |     272     2193     4624 |     1424      795     86 |  0.001 % |
|      4924 |     272     2193     4624 |     1566      915     94 |  0.001 % |
|      7486 |     272     2193     4624 |     1723     1482    107 |  0.001 % |
|     11330 |     272     2193     4624 |     1896     1623    108 |  0.001 % |
|     17096 |     272     2193     4624 |     2085     1753    105 |  0.001 % |
|     25745 |     272     2193     4624 |     2294     1308    103 |  0.001 % |
|     38719 |     272     2193     4624 |     2523     1633     96 |  0.001 % |
|     58180 |     272     2193     4624 |     2775     1571    107 |  0.001 % |
|     87372 |     272     2193     4624 |     3053     2815     96 |  0.001 % |
|    131161 |     272     2193     4624 |     3358     2042     87 |  0.001 % |
|    196845 |     272     2193     4624 |     3694     3206    100 |  0.001 % |
|    295371 |     272     2193     4624 |     4064     3470     95 |  0.001 % |
|    443160 |     272     2193     4624 |     4470     2233     74 |  0.001 % |
|    664843 |     272     2193     4624 |     4917     3588    106 |  0.001 % |
|    997368 |     272     2193     4624 |     5409     3595     82 |  0.001 % |
|   1496156 |     272     2193     4624 |     5950     4562     99 |  0.001 % |
===============================================================================
restarts              : 4094
conflicts             : 2203705        (11953 /sec)
symconflicts          : 316669         (1718 /sec)
decisions             : 4204423        (0.00 % random) (22806 /sec)
propagations          : 136457575      (740171 /sec)
sympropagations       : 1578957        (8565 /sec)
conflict literals     : 224976288      (6.24 % deleted)
literals     : 224976288      (6.24 % deleted)

HEURISTIC USAGES
random                : 0           
activity w/ lookahead : 4204423     
activity no lookahead : 0           
original sp           : 0           
sym count             : 0           

Memory used           : 20.00 MB
CPU time              : 184.36 s

UNSATISFIABLE
